31
0
0
41
10
0
14
14
23
0
0
25
42
29
0
28
29
0
60
21
18
22
9
45
0
37
35
0
17
16
0
0
16
35
8
9
9
6
15
22
37
0
0
0
30
0
14
21
58
12
70
0
18
17
17
15
12
6
62
8
15
20
0
12
10
0
12
33
0
11
24
8
0
17
40
0
0
20
11
36
28
20
15
78
51
29
9
9
0
0
34
22
18
0
10
72
0
18
13
22
